5 5
4 5 0 99 1 19 2 12 3 90
3 60 1 83 4 11 2 53 0 20
1 73 3 84 4 27 2 58 0 5
2 74 0 9 1 89 3 77 4 32
4 72 0 54 3 45 2 27 1 86
-1
0 2 3 5
0 1 2 3 5
0 4 5
0 2 5
0 1 3 5
-2
131 170 358
90 159 210 232
351 374
132 387
83 202 390

376 6
16 21 1 14 9
10 17 6 2 24
15 13 23 3 8
5 11 22 18 4
0 20 12 7 19
